NAME: ACTUAL_TOURS/amz1358
TYPE: TOUR
COMMENT: RouteID_8f8e6d8d-0e7a-48ca-a45c-08709256216f
DIMENSION: 153
TOUR_SECTION
148
48
107
26
125
124
84
113
37
121
15
3
9
149
28
76
23
119
126
29
138
73
33
146
57
54
120
147
67
8
53
114
101
7
144
63
61
40
55
71
44
136
62
56
34
108
75
20
43
130
46
89
4
140
47
94
42
58
72
74
100
64
36
118
99
69
49
35
95
2
68
52
60
123
30
137
139
151
116
18
83
25
12
152
31
51
135
79
41
87
132
88
6
93
27
102
32
70
153
117
24
143
86
104
11
145
19
5
10
141
91
77
105
92
133
39
13
66
106
1
142
131
97
90
65
150
127
129
134
98
38
122
16
22
14
111
82
80
103
85
45
115
112
78
81
128
59
21
109
110
50
96
17
-1
EOF
